33D32945 STP File, STP Format Version 1.0

SECTION Comments
Name "cube_n14_d3_s17"
Problem "Euclidean Steiner Tree Problem"
Remark "Generated with STPGenerator. 3 dimensions."
END

SECTION Graph
Nodes 14
END

SECTION Coordinates
DDD 0 0.5717940003 0.0018524737 0.1227083798
DDD 1 0.9171544332 0.8540148287 0.2275495600
DDD 2 0.1078885724 0.4860870128 0.6620165676
DDD 3 0.9043156765 0.6258278161 0.2151280480
DDD 4 0.2804932088 0.3381360212 0.8132569412
DDD 5 0.7641613385 0.5371329414 0.4402770090
DDD 6 0.7264149760 0.6913943327 0.1680129702
DDD 7 0.6031280205 0.3763264294 0.7351060159
DDD 8 0.8217135835 0.0627080598 0.4779169375
DDD 9 0.2268656857 0.9706272744 0.2301676097
DDD 10 0.3574414162 0.5424212746 0.2320200839
DDD 11 0.4801497965 0.4595757073 0.0860349122
DDD 12 0.7076993565 0.5674642797 0.5721219250
DDD 13 0.3697159241 0.4717799562 0.1979497407
END
